; benchmark generated from python API
(set-info :status unknown)
(declare-fun DISJ_W_S1_R_S1 () Bool)
(declare-fun DISJ_W_S1_W_S2 () Bool)
(declare-fun DISJ_W_S2_R_S1 () Bool)
(declare-fun R_S1_V1 () Bool)
(declare-fun DISJ_W_S2_R_S2 () Bool)
(declare-fun R_E1_V4 () Bool)
(declare-fun W_S1_V4 () Bool)
(declare-fun R_E1_V5 () Bool)
(declare-fun W_S1_V5 () Bool)
(declare-fun W_S2_V5 () Bool)
(declare-fun W_S2_V2 () Bool)
(declare-fun W_S2_V3 () Bool)
(declare-fun W_S2_V1 () Bool)
(declare-fun R_S2_V4 () Bool)
(declare-fun R_S2_V5 () Bool)
(declare-fun R_S2_V2 () Bool)
(declare-fun R_S2_V3 () Bool)
(declare-fun R_S2_V1 () Bool)
(declare-fun R_S1_V4 () Bool)
(declare-fun R_S1_V5 () Bool)
(declare-fun R_S1_V2 () Bool)
(declare-fun R_S1_V3 () Bool)
(declare-fun R_E1_V2 () Bool)
(declare-fun DISJ_W_S2_R_E1 () Bool)
(declare-fun R_E1_V3 () Bool)
(declare-fun DISJ_W_S1_R_S2 () Bool)
(declare-fun W_S2_V4 () Bool)
(declare-fun W_S1_V3 () Bool)
(declare-fun W_S1_V2 () Bool)
(declare-fun W_S1_V1 () Bool)
(declare-fun R_E1_V1 () Bool)
(declare-fun DISJ_W_S1_R_E1 () Bool)
(assert
 (let (($x5507 (not (and (not R_S1_V1) DISJ_W_S2_R_S1 DISJ_W_S1_W_S2 DISJ_W_S1_R_S1))))
 (let (($x3110 (and DISJ_W_S2_R_S1 DISJ_W_S2_R_S2)))
 (let (($x157 (not $x3110)))
 (let (($x1854 (not (and W_S1_V4 R_E1_V4))))
 (let (($x2432 (not (and W_S1_V5 R_E1_V5))))
 (let (($x4860 (forall ((V3_0 Int) )(forall ((V2_0 Int) )(forall ((V5_0 Int) )(forall ((V4_0 Int) )(forall ((MW_S1_V1 Bool) )(forall ((MW_S1_V3 Bool) )(forall ((MW_S1_V2 Bool) )(forall ((MW_S1_V5 Bool) )(forall ((MW_S1_V4 Bool) )(forall ((MW_S2_V1 Bool) )(forall ((MW_S2_V3 Bool) )(forall ((MW_S2_V2 Bool) )(forall ((MW_S2_V5 Bool) )(forall ((MW_S2_V4 Bool) )(forall ((S1_V1_!6074 Int) )(forall ((S1_V1_!6084 Int) )(forall ((S1_V1_!6095 Int) )(forall ((S1_V1_!6100 Int) )(forall ((S2_V5_!6082 Int) )(forall ((S2_V5_!6092 Int) )(forall ((S2_V5_!6109 Int) )(forall ((S2_V5_!6114 Int) )(forall ((S1_V3_!6075 Int) )(forall ((S1_V3_!6085 Int) )(forall ((S1_V3_!6096 Int) )(forall ((S1_V3_!6101 Int) )(forall ((S1_V2_!6076 Int) )(forall ((S1_V2_!6086 Int) )(forall ((S1_V2_!6097 Int) )(forall ((S1_V2_!6102 Int) )(forall ((E1_!6073 Int) )(forall ((E1_!6094 Int) )(forall ((E1_!6105 Int) )(forall ((S2_V4_!6083 Int) )(forall ((S2_V4_!6093 Int) )(forall ((S2_V4_!6110 Int) )(forall ((S2_V4_!6115 Int) )(forall ((S1_V5_!6077 Int) )(forall ((S1_V5_!6087 Int) )(forall ((S1_V5_!6098 Int) )(forall ((S1_V5_!6103 Int) )(forall ((S2_V1_!6079 Int) )(forall ((S2_V1_!6089 Int) )(forall ((S2_V1_!6106 Int) )(forall ((S2_V1_!6111 Int) )(forall ((S1_V4_!6078 Int) )(forall ((S1_V4_!6088 Int) )(forall ((S1_V4_!6099 Int) )(forall ((S1_V4_!6104 Int) )(forall ((S2_V2_!6081 Int) )(forall ((S2_V2_!6091 Int) )(forall ((S2_V2_!6108 Int) )(forall ((S2_V2_!6113 Int) )(forall ((S2_V3_!6080 Int) )(forall ((S2_V3_!6090 Int) )(forall ((S2_V3_!6107 Int) )(forall ((S2_V3_!6112 Int) )(let (($x4178 (= (ite MW_S2_V4 S2_V4_!6093 (ite MW_S1_V4 S1_V4_!6088 (ite MW_S2_V4 S2_V4_!6083 (ite MW_S1_V4 S1_V4_!6078 V4_0)))) (ite MW_S2_V4 S2_V4_!6115 (ite MW_S1_V4 S1_V4_!6104 V4_0)))))
 (let (($x388 (= (ite MW_S2_V5 S2_V5_!6092 (ite MW_S1_V5 S1_V5_!6087 (ite MW_S2_V5 S2_V5_!6082 (ite MW_S1_V5 S1_V5_!6077 V5_0)))) (ite MW_S2_V5 S2_V5_!6114 (ite MW_S1_V5 S1_V5_!6103 V5_0)))))
 (let ((?x27 (ite MW_S1_V2 S1_V2_!6102 V2_0)))
 (let ((?x127 (ite MW_S2_V2 S2_V2_!6113 ?x27)))
 (let ((?x2612 (ite MW_S1_V2 S1_V2_!6076 V2_0)))
 (let ((?x3118 (ite MW_S2_V2 S2_V2_!6081 ?x2612)))
 (let ((?x3082 (ite MW_S1_V2 S1_V2_!6086 ?x3118)))
 (let ((?x4711 (ite MW_S2_V2 S2_V2_!6091 ?x3082)))
 (let (($x2128 (= (ite MW_S2_V3 S2_V3_!6090 (ite MW_S1_V3 S1_V3_!6085 (ite MW_S2_V3 S2_V3_!6080 (ite MW_S1_V3 S1_V3_!6075 V3_0)))) (ite MW_S2_V3 S2_V3_!6112 (ite MW_S1_V3 S1_V3_!6101 V3_0)))))
 (let ((?x2374 (ite MW_S2_V1 S2_V1_!6106 E1_!6105)))
 (let ((?x3919 (+ 1 ?x2374)))
 (let ((?x4794 (ite MW_S2_V1 S2_V1_!6111 ?x3919)))
 (let ((?x779 (ite MW_S1_V1 S1_V1_!6074 E1_!6073)))
 (let ((?x332 (ite MW_S2_V1 S2_V1_!6079 ?x779)))
 (let ((?x979 (+ 1 ?x332)))
 (let ((?x2053 (ite MW_S1_V1 S1_V1_!6084 ?x979)))
 (let ((?x547 (ite MW_S2_V1 S2_V1_!6089 ?x2053)))
 (let (($x1844 (>= (ite MW_S1_V1 S1_V1_!6100 (+ 1 (ite MW_S1_V1 S1_V1_!6095 E1_!6094))) (+ (- 1) ?x27))))
 (let (($x4437 (and (not (<= V2_0 E1_!6073)) (not (<= ?x3118 ?x979)) (>= ?x547 (+ (- 1) ?x4711)) (not (<= V2_0 E1_!6094)) (not (<= (ite MW_S1_V2 S1_V2_!6097 V2_0) (+ 1 (ite MW_S1_V1 S1_V1_!6095 E1_!6094)))) $x1844 (not (<= ?x27 E1_!6105)) (not (<= (ite MW_S2_V2 S2_V2_!6108 ?x27) ?x3919)) (>= ?x4794 (+ (- 1) ?x127)))))
 (let (($x1596 (= S2_V3_!6112 S2_V3_!6090)))
 (let ((?x2467 (ite MW_S1_V4 S1_V4_!6078 V4_0)))
 (let ((?x1828 (ite MW_S2_V4 S2_V4_!6083 ?x2467)))
 (let ((?x4620 (ite MW_S1_V4 S1_V4_!6088 ?x1828)))
 (let ((?x1367 (ite MW_S1_V4 S1_V4_!6104 V4_0)))
 (let ((?x939 (ite MW_S2_V4 S2_V4_!6110 ?x1367)))
 (let (($x1839 (not R_S2_V4)))
 (let ((?x5102 (ite MW_S1_V5 S1_V5_!6077 V5_0)))
 (let ((?x1134 (ite MW_S2_V5 S2_V5_!6082 ?x5102)))
 (let ((?x5278 (ite MW_S1_V5 S1_V5_!6087 ?x1134)))
 (let ((?x5477 (ite MW_S1_V5 S1_V5_!6103 V5_0)))
 (let ((?x2309 (ite MW_S2_V5 S2_V5_!6109 ?x5477)))
 (let (($x3838 (not R_S2_V5)))
 (let ((?x301 (ite MW_S1_V3 S1_V3_!6075 V3_0)))
 (let ((?x2977 (ite MW_S2_V3 S2_V3_!6080 ?x301)))
 (let ((?x2173 (ite MW_S1_V3 S1_V3_!6085 ?x2977)))
 (let ((?x3049 (ite MW_S1_V3 S1_V3_!6101 V3_0)))
 (let ((?x2912 (ite MW_S2_V3 S2_V3_!6107 ?x3049)))
 (let (($x4911 (not R_S2_V3)))
 (let (($x712 (and (or (not R_S2_V1) (= ?x2374 (+ (- 1) ?x2053))) (or $x4911 (= ?x2912 ?x2173)) (or (not R_S2_V2) (= (ite MW_S2_V2 S2_V2_!6108 ?x27) ?x3082)) (or $x3838 (= ?x2309 ?x5278)) (or $x1839 (= ?x939 ?x4620)))))
 (let (($x2692 (not $x712)))
 (let (($x3532 (= S2_V3_!6112 S2_V3_!6080)))
 (let (($x5351 (and (or (not R_S2_V1) (= ?x2374 (+ (- 1) ?x779))) (or $x4911 (= ?x2912 ?x301)) (or (not R_S2_V2) (= (ite MW_S2_V2 S2_V2_!6108 ?x27) ?x2612)) (or $x3838 (= ?x2309 ?x5102)) (or $x1839 (= ?x939 ?x2467)))))
 (let (($x2849 (not $x5351)))
 (let (($x753 (= S2_V3_!6107 S2_V3_!6112)))
 (let (($x3321 (and (or (not R_S2_V1) (= E1_!6105 ?x3919)) (or $x4911 (= ?x3049 ?x2912)) (or (not R_S2_V2) (= ?x27 (ite MW_S2_V2 S2_V2_!6108 ?x27))) (or $x3838 (= ?x5477 ?x2309)) (or $x1839 (= ?x1367 ?x939)))))
 (let (($x3687 (= S2_V3_!6107 S2_V3_!6090)))
 (let (($x318 (and (or (not R_S2_V1) (= E1_!6105 ?x2053)) (or $x4911 (= ?x3049 ?x2173)) (or (not R_S2_V2) (= ?x27 ?x3082)) (or $x3838 (= ?x5477 ?x5278)) (or $x1839 (= ?x1367 ?x4620)))))
 (let (($x2272 (not $x318)))
 (let (($x3581 (= S2_V3_!6107 S2_V3_!6080)))
 (let (($x1101 (and (or (not R_S2_V1) (= E1_!6105 ?x779)) (or $x4911 (= ?x3049 ?x301)) (or (not R_S2_V2) (= ?x27 ?x2612)) (or $x3838 (= ?x5477 ?x5102)) (or $x1839 (= ?x1367 ?x2467)))))
 (let (($x871 (= S2_V3_!6090 S2_V3_!6080)))
 (let (($x315 (and (or (not R_S2_V1) (= ?x2053 ?x779)) (or $x4911 (= ?x2173 ?x301)) (or (not R_S2_V2) (= ?x3082 ?x2612)) (or $x3838 (= ?x5278 ?x5102)) (or $x1839 (= ?x4620 ?x2467)))))
 (let (($x4817 (not $x315)))
 (let (($x98 (= S2_V2_!6113 S2_V2_!6108)))
 (let (($x5908 (and (or (not R_S2_V1) (= ?x2374 (+ (- 1) E1_!6105))) (or $x4911 (= ?x2912 ?x3049)) (or (not R_S2_V2) (= (ite MW_S2_V2 S2_V2_!6108 ?x27) ?x27)) (or $x3838 (= ?x2309 ?x5477)) (or $x1839 (= ?x939 ?x1367)))))
 (let (($x5423 (not $x5908)))
 (let (($x4072 (= S2_V2_!6091 S2_V2_!6108)))
 (let (($x5921 (and (or (not R_S2_V1) (= ?x2053 E1_!6105)) (or $x4911 (= ?x2173 ?x3049)) (or (not R_S2_V2) (= ?x3082 ?x27)) (or $x3838 (= ?x5278 ?x5477)) (or $x1839 (= ?x4620 ?x1367)))))
 (let (($x4579 (not $x5921)))
 (let (($x4735 (= S2_V2_!6081 S2_V2_!6113)))
 (let (($x5787 (and (or (not R_S2_V1) (= ?x779 ?x3919)) (or $x4911 (= ?x301 ?x2912)) (or (not R_S2_V2) (= ?x2612 (ite MW_S2_V2 S2_V2_!6108 ?x27))) (or $x3838 (= ?x5102 ?x2309)) (or $x1839 (= ?x2467 ?x939)))))
 (let (($x2266 (not $x5787)))
 (let (($x4625 (= S2_V2_!6081 S2_V2_!6108)))
 (let (($x3234 (and (or (not R_S2_V1) (= ?x779 E1_!6105)) (or $x4911 (= ?x301 ?x3049)) (or (not R_S2_V2) (= ?x2612 ?x27)) (or $x3838 (= ?x5102 ?x5477)) (or $x1839 (= ?x2467 ?x1367)))))
 (let (($x3484 (not $x3234)))
 (let (($x1546 (= S2_V2_!6081 S2_V2_!6091)))
 (let (($x1174 (and (or (not R_S2_V1) (= ?x779 ?x2053)) (or $x4911 (= ?x301 ?x2173)) (or (not R_S2_V2) (= ?x2612 ?x3082)) (or $x3838 (= ?x5102 ?x5278)) (or $x1839 (= ?x2467 ?x4620)))))
 (let (($x329 (not $x1174)))
 (let (($x2850 (= S1_V4_!6104 S1_V4_!6088)))
 (let (($x5815 (and (or (not R_S1_V1) (= (ite MW_S1_V1 S1_V1_!6095 E1_!6094) ?x332)) (or (not R_S1_V3) (= (ite MW_S1_V3 S1_V3_!6096 V3_0) ?x2977)) (or (not R_S1_V2) (= (ite MW_S1_V2 S1_V2_!6097 V2_0) ?x3118)) (or (not R_S1_V5) (= (ite MW_S1_V5 S1_V5_!6098 V5_0) ?x1134)) (or (not R_S1_V4) (= (ite MW_S1_V4 S1_V4_!6099 V4_0) ?x1828)))))
 (let (($x2008 (not $x5815)))
 (let (($x657 (not R_S1_V4)))
 (let (($x205 (or $x657 (= (ite MW_S1_V4 S1_V4_!6099 V4_0) V4_0))))
 (let (($x1345 (not R_S1_V5)))
 (let (($x2571 (or $x1345 (= (ite MW_S1_V5 S1_V5_!6098 V5_0) V5_0))))
 (let (($x3524 (not R_S1_V2)))
 (let (($x3414 (or $x3524 (= (ite MW_S1_V2 S1_V2_!6097 V2_0) V2_0))))
 (let (($x185 (not R_S1_V3)))
 (let (($x6032 (or $x185 (= (ite MW_S1_V3 S1_V3_!6096 V3_0) V3_0))))
 (let (($x3440 (and (or (not R_S1_V1) (= (ite MW_S1_V1 S1_V1_!6095 E1_!6094) (+ (- 1) E1_!6073))) $x6032 $x3414 $x2571 $x205)))
 (let (($x665 (not $x3440)))
 (let (($x1768 (or $x657 (= V4_0 (ite MW_S1_V4 S1_V4_!6099 V4_0)))))
 (let (($x3380 (or $x1345 (= V5_0 (ite MW_S1_V5 S1_V5_!6098 V5_0)))))
 (let (($x3752 (or $x3524 (= V2_0 (ite MW_S1_V2 S1_V2_!6097 V2_0)))))
 (let (($x1443 (or $x185 (= V3_0 (ite MW_S1_V3 S1_V3_!6096 V3_0)))))
 (let (($x1782 (and (or (not R_S1_V1) (= E1_!6094 (+ 1 (ite MW_S1_V1 S1_V1_!6095 E1_!6094)))) $x1443 $x3752 $x3380 $x1768)))
 (let (($x448 (not $x1782)))
 (let (($x2985 (= S1_V4_!6099 S1_V4_!6088)))
 (let (($x1658 (or $x657 (= V4_0 ?x1828))))
 (let (($x6031 (or $x1345 (= V5_0 ?x1134))))
 (let (($x2358 (or $x3524 (= V2_0 ?x3118))))
 (let (($x2215 (or $x185 (= V3_0 ?x2977))))
 (let (($x734 (not (and (or (not R_S1_V1) (= E1_!6094 ?x979)) $x2215 $x2358 $x6031 $x1658))))
 (let (($x4676 (or $x657 (= ?x1828 V4_0))))
 (let (($x3447 (or $x1345 (= ?x1134 V5_0))))
 (let (($x810 (or $x3524 (= ?x3118 V2_0))))
 (let (($x682 (or $x185 (= ?x2977 V3_0))))
 (let (($x598 (and (or (not R_S1_V1) (= ?x332 (+ (- 1) E1_!6073))) $x682 $x810 $x3447 $x4676)))
 (let (($x2970 (not $x598)))
 (let (($x1299 (= S2_V1_!6089 S2_V1_!6111)))
 (let (($x2955 (and (or (not R_S2_V1) (= ?x2053 ?x3919)) (or $x4911 (= ?x2173 ?x2912)) (or (not R_S2_V2) (= ?x3082 (ite MW_S2_V2 S2_V2_!6108 ?x27))) (or $x3838 (= ?x5278 ?x2309)) (or $x1839 (= ?x4620 ?x939)))))
 (let (($x575 (not $x2955)))
 (let (($x4571 (= S1_V5_!6103 S1_V5_!6098)))
 (let (($x1485 (and (or (not R_S1_V1) (= (ite MW_S1_V1 S1_V1_!6095 E1_!6094) (+ (- 1) E1_!6094))) $x6032 $x3414 $x2571 $x205)))
 (let (($x1131 (not $x1485)))
 (let (($x2039 (or (not (and (or (not R_S1_V1) (= E1_!6073 ?x979)) $x2215 $x2358 $x6031 $x1658)) (= S1_V5_!6077 S1_V5_!6087))))
 (let (($x5749 (and (or (not R_E1_V2) (= ?x27 V2_0)) (or (not R_E1_V5) (= ?x5477 V5_0)) (or (not R_E1_V4) (= ?x1367 V4_0)))))
 (let (($x5195 (= E1_!6073 E1_!6105)))
 (let (($x2273 (and (or (not R_E1_V2) (= V2_0 ?x27)) (or (not R_E1_V5) (= V5_0 ?x5477)) (or (not R_E1_V4) (= V4_0 ?x1367)))))
 (let (($x4943 (= E1_!6073 E1_!6094)))
 (let (($x4686 (and (or (not R_S1_V1) (= ?x332 (ite MW_S1_V1 S1_V1_!6095 E1_!6094))) (or $x185 (= ?x2977 (ite MW_S1_V3 S1_V3_!6096 V3_0))) (or $x3524 (= ?x3118 (ite MW_S1_V2 S1_V2_!6097 V2_0))) (or $x1345 (= ?x1134 (ite MW_S1_V5 S1_V5_!6098 V5_0))) (or $x657 (= ?x1828 (ite MW_S1_V4 S1_V4_!6099 V4_0))))))
 (let (($x823 (not $x4686)))
 (let (($x3820 (and (or (not R_S1_V1) (= ?x332 (+ (- 1) E1_!6094))) $x682 $x810 $x3447 $x4676)))
 (let (($x1607 (not $x3820)))
 (let (($x798 (and (or (not R_S1_V1) (= E1_!6073 (+ 1 (ite MW_S1_V1 S1_V1_!6095 E1_!6094)))) $x1443 $x3752 $x3380 $x1768)))
 (let (($x2047 (not $x798)))
 (let (($x5965 (and (or $x2047 (= S1_V1_!6074 S1_V1_!6100)) (or $x2970 (= S1_V1_!6084 S1_V1_!6074)) (or $x1607 (= S1_V1_!6084 S1_V1_!6095)) (or $x823 (= S1_V1_!6084 S1_V1_!6100)) (or (not (or (not R_S1_V1) (= E1_!6094 E1_!6073))) (= S1_V1_!6095 S1_V1_!6074)) (or $x448 (= S1_V1_!6095 S1_V1_!6100)) (or $x3484 (= S2_V5_!6082 S2_V5_!6109)) (or $x2266 (= S2_V5_!6082 S2_V5_!6114)) (or $x4817 (= S2_V5_!6092 S2_V5_!6082)) (or $x4579 (= S2_V5_!6092 S2_V5_!6109)) (or $x575 (= S2_V5_!6092 S2_V5_!6114)) (or $x5423 (= S2_V5_!6114 S2_V5_!6109)) (or (not (or (not R_S1_V1) $x4943)) (= S1_V3_!6075 S1_V3_!6096)) (or $x2970 (= S1_V3_!6085 S1_V3_!6075)) (or $x1607 (= S1_V3_!6085 S1_V3_!6096)) (or $x823 (= S1_V3_!6085 S1_V3_!6101)) (or $x665 (= S1_V3_!6101 S1_V3_!6075)) (or $x1131 (= S1_V3_!6101 S1_V3_!6096)) (or $x2047 (= S1_V2_!6076 S1_V2_!6102)) (or $x2970 (= S1_V2_!6086 S1_V2_!6076)) (or $x1607 (= S1_V2_!6086 S1_V2_!6097)) (or $x823 (= S1_V2_!6086 S1_V2_!6102)) (or (not (or (not R_S1_V1) (= E1_!6094 E1_!6073))) (= S1_V2_!6097 S1_V2_!6076)) (or $x448 (= S1_V2_!6097 S1_V2_!6102)) $x4943 (or (not $x2273) $x5195) (or (not $x5749) (= E1_!6105 E1_!6094)) (or $x329 (= S2_V4_!6083 S2_V4_!6093)) (or $x3484 (= S2_V4_!6083 S2_V4_!6110)) (or $x2272 (= S2_V4_!6110 S2_V4_!6093)) (or $x2849 (= S2_V4_!6115 S2_V4_!6083)) (or $x2692 (= S2_V4_!6115 S2_V4_!6093)) (or $x5423 (= S2_V4_!6115 S2_V4_!6110)) $x2039 (or (not (or (not R_S1_V1) $x4943)) (= S1_V5_!6077 S1_V5_!6098)) (or $x734 (= S1_V5_!6098 S1_V5_!6087)) (or $x665 (= S1_V5_!6103 S1_V5_!6077)) (or $x2008 (= S1_V5_!6103 S1_V5_!6087)) (or $x1131 $x4571) (or $x329 (= S2_V1_!6079 S2_V1_!6089)) (or $x3484 (= S2_V1_!6079 S2_V1_!6106)) (or $x2266 (= S2_V1_!6079 S2_V1_!6111)) (or $x4579 (= S2_V1_!6089 S2_V1_!6106)) (or $x575 $x1299) (or $x5423 (= S2_V1_!6111 S2_V1_!6106)) (or $x2970 (= S1_V4_!6088 S1_V4_!6078)) (or (not (or (not R_S1_V1) (= E1_!6094 E1_!6073))) (= S1_V4_!6099 S1_V4_!6078)) (or $x734 $x2985) (or $x448 (= S1_V4_!6099 S1_V4_!6104)) (or $x665 (= S1_V4_!6104 S1_V4_!6078)) (or $x2008 $x2850) (or $x329 $x1546) (or $x3484 $x4625) (or $x2266 $x4735) (or $x4579 $x4072) (or $x2692 (= S2_V2_!6113 S2_V2_!6091)) (or $x5423 $x98) (or $x4817 $x871) (or (not $x1101) $x3581) (or $x2272 $x3687) (or (not $x3321) $x753) (or $x2849 $x3532) (or $x2692 $x1596) (not MW_S1_V1) (not MW_S1_V2) (or (not MW_S1_V5) W_S1_V5) (or (not MW_S1_V4) W_S1_V4) (or (not MW_S2_V1) W_S2_V1) (or (not MW_S2_V3) W_S2_V3) (or (not MW_S2_V2) W_S2_V2) (or (not MW_S2_V5) W_S2_V5))))
 (or (not $x5965) (not $x4437) (and (= ?x547 ?x4794) $x2128 (= ?x4711 ?x127) $x388 $x4178))))))))))))))))))))))))))))))))))))))))))))))))))))))))))))))))))))))))))))))))))))))))))))))))))))))))))))))))))))))))
 )
 )
 )
 )
 )
 )
 )
 )
 )
 )
 )
 )
 )
 )
 )
 )
 )
 )
 )
 )
 )
 )
 )
 )
 )
 )
 )
 )
 )
 )
 )
 )
 )
 )
 )
 )
 )
 )
 )
 )
 )
 )
 )
 )
 )
 )
 )
 )
 )
 )
 )
 )
 )
 )
 )
 )
 ))
 (let (($x2788 (or (and W_S2_V2 R_E1_V2) (and W_S2_V5 R_E1_V5) R_E1_V4)))
 (let (($x3850 (= DISJ_W_S2_R_E1 (not $x2788))))
 (let (($x2408 (and W_S2_V5 R_S2_V5)))
 (let (($x2773 (and W_S2_V2 R_S2_V2)))
 (let (($x4637 (and W_S2_V3 R_S2_V3)))
 (let (($x2213 (and W_S2_V1 R_S2_V1)))
 (let (($x2189 (= DISJ_W_S2_R_S2 (not (or $x2213 $x4637 $x2773 $x2408 R_S2_V4)))))
 (let (($x3373 (and W_S2_V5 R_S1_V5)))
 (let (($x3316 (and W_S2_V2 R_S1_V2)))
 (let (($x617 (and W_S2_V3 R_S1_V3)))
 (let (($x4015 (and W_S2_V1 R_S1_V1)))
 (let (($x1818 (= DISJ_W_S2_R_S1 (not (or $x4015 $x617 $x3316 $x3373 R_S1_V4)))))
 (let (($x3405 (= DISJ_W_S1_W_S2 (not (or W_S2_V3 (and W_S1_V5 W_S2_V5) W_S1_V4)))))
 (let (($x1835 (not R_E1_V3)))
 (let (($x2250 (not (or R_S2_V3 (and W_S1_V5 R_S2_V5) (and W_S1_V4 R_S2_V4)))))
 (let (($x1756 (= DISJ_W_S1_R_S2 $x2250)))
 (let (($x708 (not (or R_S1_V3 (and W_S1_V5 R_S1_V5) (and W_S1_V4 R_S1_V4)))))
 (let (($x5918 (= DISJ_W_S1_R_S1 $x708)))
 (let (($x630 (not W_S2_V5)))
 (let (($x5250 (not W_S2_V2)))
 (let (($x4911 (not R_S2_V3)))
 (let (($x2202 (not R_S2_V1)))
 (let (($x3231 (and $x2202 $x4911 $x5250 $x630 DISJ_W_S2_R_S1)))
 (let (($x137 (not W_S2_V3)))
 (let (($x3838 (not R_S2_V5)))
 (let (($x4054 (and $x2202 $x3838 $x5250 $x137 DISJ_W_S2_R_S1)))
 (let (($x1874 (and $x2202 $x5250 $x630 $x137 DISJ_W_S2_R_S1)))
 (let (($x5116 (and $x2202 $x4911 $x3838 $x5250 DISJ_W_S2_R_S1)))
 (let (($x1839 (not R_S2_V4)))
 (let (($x1715 (and $x2202 $x1839 $x5250 $x630 DISJ_W_S2_R_S1)))
 (let (($x1749 (and $x2202 $x3838 $x1839 $x5250 DISJ_W_S2_R_S1)))
 (let (($x75 (and $x2202 $x1839 $x5250 $x137 DISJ_W_S2_R_S1)))
 (let (($x1063 (and $x2202 $x4911 $x1839 $x5250 DISJ_W_S2_R_S1)))
 (let (($x5487 (not W_S1_V4)))
 (let (($x484 (and $x3838 $x5487 $x137 DISJ_W_S2_R_S1)))
 (let (($x3169 (and $x3838 $x1839 $x137 DISJ_W_S2_R_S1)))
 (let (($x3168 (and $x1839 (not W_S1_V5) $x137 DISJ_W_S2_R_S1)))
 (let (($x3461 (and $x1839 $x630 $x137 DISJ_W_S2_R_S1)))
 (let (($x2458 (and DISJ_W_S1_W_S2 DISJ_W_S2_R_S1)))
 (let (($x1122 (and $x4911 $x5487 $x630 DISJ_W_S2_R_S1)))
 (let (($x5063 (and (not W_S2_V1) $x5250)))
 (let (($x5989 (and $x4911 $x1839 $x630 DISJ_W_S2_R_S1)))
 (let (($x140 (and DISJ_W_S1_R_S2 DISJ_W_S2_R_S1)))
 (let (($x4809 (and $x5250 DISJ_W_S2_R_S2)))
 (let (($x4074 (or $x3110 $x4809 $x140 $x5989 $x5063 $x1122 $x2458 $x3461 $x3168 $x3169 $x484 $x1063 $x75 $x1749 $x1715 $x5116 $x1874 $x4054 $x3231)))
 (let (($x813 (not R_S1_V1)))
 (let (($x1882 (and $x813 DISJ_W_S1_R_S1)))
 (let (($x1830 (and $x5250 DISJ_W_S2_R_S1 DISJ_W_S1_R_S1)))
 (let (($x629 (or $x1830 $x5063 $x1882)))
 (let (($x2716 (not W_S1_V2)))
 (let (($x3343 (not W_S1_V1)))
 (let (($x2005 (not R_E1_V1)))
 (let (($x4621 (and DISJ_W_S1_R_E1 $x2005 $x3343 $x2716 $x629 $x4074 W_S1_V3 W_S2_V4 $x5918 $x1756 $x1835 $x3405 $x1818 $x2189 $x3850 $x4860 $x2432 $x1854)))
 (and $x4621 $x157 $x5507)))))))))))))))))))))))))))))))))))))))))))))))))))))))))))))
(check-sat)
